100 500 10 200 10 100
82 117
98 110
46 156
37 18
88 184
64 126
61 119
84 40
46 117
48 25
100 133
52 42
72 141
60 67
36 196
87 141
45 182
82 179
62 145
92 76
30 112
95 146
14 74
12 39
36 115
67 137
56 48
67 49
88 60
91 72
29 16
85 179
40 96
25 147
92 188
95 181
79 37
18 164
66 146
13 103
77 68
43 142
79 29
66 129
43 109
97 147
13 47
43 125
64 126
36 17
28 107
83 55
73 159
96 34
27 33
47 199
70 178
79 41
97 142
85 97
71 173
93 178
79 12
72 164
47 17
13 84
44 13
24 69
93 160
62 109
18 63
12 97
95 68
43 58
42 88
31 72
62 32
40 91
65 186
90 196
25 69
29 151
96 30
83 77
53 147
61 185
22 83
93 62
61 31
62 164
69 77
22 12
76 119
25 146
71 12
96 140
24 42
62 156
21 122
62 64
